4148745
41,75,64,77,39,80,74,97,104,8,69,86,27,14,78,92,56,71,55,12,60,19,40,68,36,62,96,93,76,89,47,109,48,13,99,102,17,53,23,67,63,3,2,84,29,16,32,95,61,85,100,54,22,72,31,57,38,9,26,33,73,103,10,1,90,24,20,107,18,50,65,106,42,21,108,105,87,88,70,28,7,58,91,15,79,4,44,43,51,46,83,94,81,59,25,6,30,34,66,37,5,82,45,101,35,52,98,11,49,41